NAME : portcgen-25-15
COMMENT : portcgen N=25, seed=15
TYPE : TSP
DIMENSION : 25
EDGE_WEIGHT_TYPE : EUC_2D
NODE_COORD_SECTION
1 103685 94870
2 -339951 -231909
3 158200 61109
4 174067 296368
5 45810 -312653
6 329737 -306190
7 242851 -7937
8 -224274 154868
9 337247 93524
10 -46181 -250279
11 89187 137397
12 -171968 163998
13 325191 -244575
14 -168477 -232961
15 295405 17069
16 -39853 -285266
17 -92276 122197
18 313591 209988
19 -389569 -7136
20 249749 -124776
21 -117891 22010
22 113584 134113
23 39108 -201382
24 192099 -158658
25 212552 800
